SCIP Status        : solving was interrupted [time limit reached]
Total Time         :    3600.01
  solving          :    3600.00
  presolving       :       0.11 (included in solving)
  reading          :       0.00
  copying          :       0.13 (37 #copies) (minimal 0.00, maximal 0.01, average 0.00)
Original Problem   :
  Problem name     : multiplants_stg1b
  Variables        : 476 (243 binary, 0 integer, 0 implicit integer, 233 continuous)
  Constraints      : 280 initial, 280 maximal
  Objective        : maximize, 1 non-zeros (abs.min = 1, abs.max = 1)
Presolved Problem  :
  Problem name     : t_multiplants_stg1b
  Variables        : 486 (222 binary, 0 integer, 0 implicit integer, 264 continuous)
  Constraints      : 267 initial, 772 maximal
  Objective        : minimize, 1 non-zeros (abs.min = 1, abs.max = 1)
  Nonzeros         : 1622 constraint, 1020 clique table
Presolvers         :   ExecTime  SetupTime  Calls  FixedVars   AggrVars   ChgTypes  ChgBounds   AddHoles    DelCons    AddCons   ChgSides   ChgCoefs
  boundshift       :       0.00       0.00      0          0          0          0          0          0          0          0          0          0
  convertinttobin  :       0.00       0.00      0          0          0          0          0          0          0          0          0          0
  domcol           :       0.00       0.00      1          0          0          0          0          0          0          0          0          0
  dualagg          :       0.00       0.00      0          0          0          0          0          0          0          0          0          0
  dualcomp         :       0.00       0.00      1          0          0          0          0          0          0          0          0          0
  dualinfer        :       0.00       0.00      0          0          0          0          0          0          0          0          0          0
  dualsparsify     :       0.00       0.00      1          0          0          0          0          0          0          0          0          0
  gateextraction   :       0.00       0.00      0          0          0          0          0          0          0          0          0          0
  implics          :       0.00       0.00      2          0          0          0          0          0          0          0          0          0
  inttobinary      :       0.00       0.00      0          0          0          0          0          0          0          0          0          0
  qpkktref         :       0.00       0.00      0          0          0          0          0          0          0          0          0          0
  redvub           :       0.00       0.00      0          0          0          0          0          0          0          0          0          0
  sparsify         :       0.00       0.00      1          0          0          0          0          0          0          0          0          0
  stuffing         :       0.00       0.00      0          0          0          0          0          0          0          0          0          0
  trivial          :       0.00       0.00      5         90          0          0          0          0          0          0          0          0
  tworowbnd        :       0.00       0.00      0          0          0          0          0          0          0          0          0          0
  dualfix          :       0.00       0.00      5          0          0          0          0          0          0          0          0          0
  genvbounds       :       0.00       0.00      0          0          0          0          0          0          0          0          0          0
  probing          :       0.10       0.00      1          0          0          0          0          0          0          0          0          0
  pseudoobj        :       0.00       0.00      0          0          0          0          0          0          0          0          0          0
  symmetry         :       0.00       0.00      1          0          0          0          0          0          0          0          0          0
  vbounds          :       0.00       0.00      1          0          0          0          0          0          0          0          0          0
  varbound         :       0.00       0.00      2          0          0          0          0          0          0          0          0          0
  knapsack         :       0.00       0.00      3          0          0          0          0          0          0          0          0          0
  setppc           :       0.00       0.00      3          0          0          0          0          0          0          0          0          0
  linear           :       0.00       0.00      7         19          0          0         25          0         13          0          0          3
  logicor          :       0.00       0.00      0          0          0          0          0          0          0          0          0          0
  bounddisjunction :       0.00       0.00      0          0          0          0          0          0          0          0          0          0
  nonlinear        :       0.01       0.00      8          0          0          0          2          0          0          0          0         -3
  benders          :       0.00       0.00      0          0          0          0          0          0          0          0          0          0
  components       :       0.00       0.00      1          0          0          0          0          0          0          0          0          0
  root node        :          -          -      -          0          -          -         85          -          -          -          -          -
Constraints        :     Number  MaxNumber  #Separate #Propagate    #EnfoLP    #EnfoRelax  #EnfoPS    #Check   #ResProp    Cutoffs    DomReds       Cuts    Applied      Conss   Children
  benderslp        :          0          0          0          0     220269          0        415     209607          0          0          0          0          0          0          0
  integral         :          0          0          0          0     220269          0          0     209607          0          0      57064          0          0       2730     119182
  varbound         :         74         74         10     827151          0          0        327     209603        121          0     237428          0          0          0          0
  knapsack         :          2+        23         10     830907          0          0        325     202666       9172        182     295049          0          0          0          0
  setppc           :         10+       152         10     880784          0          0        188     202530      14228        143     192416          0          0          0          0
  linear           :        153+       172         10     888773          0          0          0     202336      15836       1630    1970721          0          0          0          0
  logicor          :          0+       416         10     139109          0          0          0          0       2082        118      28687          0          0          0          0
  bounddisjunction :          0+        31          0      54127          0          0          0          0          0          0      19375          0          0          0          0
  nonlinear        :         28         28     872421     887025     156191          0        415     201681          0          0    4610679    5961555    3836044          0     302644
  benders          :          0          0          0          0          0          0        415          4          0          0          0          0          0          0          0
  countsols        :          0          0          0          0          0          0        415          4          0          0          0          0          0          0          0
  components       :          0          0          0          0          0          0          0          0          0          0          0          0          0          0          0
Constraint Timings :  TotalTime  SetupTime   Separate  Propagate     EnfoLP     EnfoPS     EnfoRelax   Check    ResProp    SB-Prop
  benderslp        :       0.09       0.00       0.00       0.00       0.08       0.00       0.00       0.01       0.00       0.00
  integral         :      41.59       0.00       0.00       0.00      41.50       0.00       0.00       0.08       0.00       0.00
  varbound         :       2.04       0.00       0.00       0.96       0.00       0.00       0.00       0.77       0.00       0.31
  knapsack         :       2.54       0.00       0.00       1.66       0.00       0.00       0.00       0.03       0.01       0.84
  setppc           :       1.22       0.00       0.00       0.96       0.00       0.00       0.00       0.04       0.00       0.22
  linear           :       8.92       0.00       0.00       7.28       0.00       0.00       0.00       0.35       0.01       1.27
  logicor          :       1.27       0.00       0.00       1.06       0.00       0.00       0.00       0.00       0.00       0.21
  bounddisjunction :       0.22       0.00       0.00       0.20       0.00       0.00       0.00       0.00       0.00       0.02
  nonlinear        :    2437.61       0.00    2006.02      59.68     360.22       0.02       0.00       4.66       0.00       7.01
  benders          :       0.00       0.00       0.00       0.00       0.00       0.00       0.00       0.00       0.00       0.00
  countsols        :       0.00       0.00       0.00       0.00       0.00       0.00       0.00       0.00       0.00       0.00
  components       :       0.08       0.00       0.00       0.07       0.00       0.00       0.00       0.00       0.00       0.01
Propagators        : #Propagate   #ResProp    Cutoffs    DomReds
  dualfix          :          2          0          0          0
  genvbounds       :     140156          0          0         34
  nlobbt           :          0          0          0          0
  obbt             :          2          0          0          1
  probing          :          0          0          0          0
  pseudoobj        :     946413          0          0         25
  redcost          :     999755          0          0       1259
  rootredcost      :          4          0          0          3
  symmetry         :          0          0          0          0
  vbounds          :     274656          0          0          0
Propagator Timings :  TotalTime  SetupTime   Presolve  Propagate    ResProp    SB-Prop
  dualfix          :       0.00       0.00       0.00       0.00       0.00       0.00
  genvbounds       :       1.18       0.00       0.00       1.16       0.00       0.02
  nlobbt           :       0.00       0.00       0.00       0.00       0.00       0.00
  obbt             :       0.32       0.00       0.00       0.32       0.00       0.00
  probing          :       0.10       0.00       0.10       0.00       0.00       0.00
  pseudoobj        :       0.54       0.00       0.00       0.53       0.00       0.01
  redcost          :       3.54       0.00       0.00       3.53       0.00       0.01
  rootredcost      :       0.27       0.00       0.00       0.26       0.00       0.01
  symmetry         :       0.10       0.00       0.00       0.09       0.00       0.01
  vbounds          :       0.49       0.00       0.00       0.44       0.00       0.05
Conflict Analysis  :       Time      Calls    Success    DomReds  Conflicts   Literals    Reconvs ReconvLits   Dualrays   Nonzeros   LP Iters   (pool size: [10000,10000])
  propagation      :       0.04       1485       1450          -       3993       10.5        155        5.5          -          -          -
  infeasible LP    :       0.09        719        642          -       1477       10.1         67        4.0         99       39.8          0
  bound exceed. LP :       0.04        131          0          -          0        0.0          0        0.0          0        0.0          0
  strong branching :       0.00          0          0          -          0        0.0          0        0.0          -          -          0
  pseudo solution  :       0.00          0          0          -          0        0.0          0        0.0          -          -          -
  applied globally :       0.02          -          -          0       4801        8.4          -          -         95          -          -
  applied locally  :          -          -          -          0          0        0.0          -          -          4          -          -
Separators         :   ExecTime  SetupTime      Calls  RootCalls    Cutoffs    DomReds  FoundCuts ViaPoolAdd  DirectAdd    Applied ViaPoolApp  DirectApp      Conss
  cut pool         :       0.01          -       5246          0          -          -        221         75          -          -          -          -          -    (maximal pool size:         18)
  aggregation      :       0.47       0.00       1403          0          0          0         22          2          0          2          2          0          0
  > cmir           :          -          -          -          -          -          -          -          2          0          2          2          0          -
  > flowcover      :          -          -          -          -          -          -          -          0          0          0          0          0          -
  > knapsackcover  :          -          -          -          -          -          -          -          0          0          0          0          0          -
  cgmip            :       0.00       0.00          0          0          0          0          0          0          0          0          0          0          0
  clique           :       0.00       0.00          0          0          0          0          0          0          0          0          0          0          0
  closecuts        :       0.00       0.00          0          0          0          0          0          0          0          0          0          0          0
  convexproj       :       0.00       0.00          0          0          0          0          0          0          0          0          0          0          0
  disjunctive      :       0.00       0.00          0          0          0          0          0          0          0          0          0          0          0
  eccuts           :       0.00       0.00          0          0          0          0          0          0          0          0          0          0          0
  gauge            :       0.00       0.00          0          0          0          0          0          0          0          0          0          0          0
  gomory           :       0.42       0.00       1309          0          0          0        181         67          0         33         33          0          0
  > gomorymi       :          -          -          -          -          -          -          -         48          0         30         30          0          -
  > strongcg       :          -          -          -          -          -          -          -         19          0          3          3          0          -
  impliedbounds    :       0.06       0.00       1403          0          0          0          1          0          0          0          0          0          0
  interminor       :       0.00       0.00          0          0          0          0          0          0          0          0          0          0          0
  intobj           :       0.00       0.00          0          0          0          0          0          0          0          0          0          0          0
  mcf              :       0.00       0.00          0          0          0          0          0          0          0          0          0          0          0
  minor            :       0.01       0.00          0          0          0          0          0          0          0          0          0          0          0
  mixing           :       0.22       0.00      11473         10          0          0          0          0          0          0          0          0          0
  oddcycle         :       0.00       0.00          0          0          0          0          0          0          0          0          0          0          0
  rapidlearning    :       0.01       0.00          0          0          0          0          0          0          0          0          0          0          0
  rlt              :       0.00       0.00         10         10          0          0          0          0          0          0          0          0          0
  zerohalf         :       0.13       0.00       1309          0          0          0         21          6          4          6          3          3          0
Cutselectors       :   ExecTime  SetupTime      Calls  RootCalls   Selected     Forced   Filtered  RootSelec   RootForc   RootFilt 
  hybrid           :       2.89       0.00     677181          8    3827899          0    2125233         52          0         19
Pricers            :   ExecTime  SetupTime      Calls       Vars
  problem variables:       0.00          -          0          0
Branching Rules    :   ExecTime  SetupTime   BranchLP  BranchExt   BranchPS    Cutoffs    DomReds       Cuts      Conss   Children
  allfullstrong    :       0.00       0.00          0          0          0          0          0          0          0          0
  cloud            :       0.00       0.00          0          0          0          0          0          0          0          0
  distribution     :       0.00       0.00          0          0          0          0          0          0          0          0
  fullstrong       :       0.00       0.00          0          0          0          0          0          0          0          0
  inference        :       0.00       0.00          0          0          0          0          0          0          0          0
  leastinf         :       0.00       0.00          0          0          0          0          0          0          0          0
  lookahead        :       0.00       0.00          0          0          0          0          0          0          0          0
  mostinf          :       0.00       0.00          0          0          0          0          0          0          0          0
  multaggr         :       0.00       0.00          0          0          0          0          0          0          0          0
  nodereopt        :       0.00       0.00          0          0          0          0          0          0          0          0
  pscost           :       0.01       0.00          0        415          0          0          0          0          0        830
  random           :       0.00       0.00          0          0          0          0          0          0          0          0
  relpscost        :      41.41       0.00      64078          0          0          0      57064          0       2805     119182
  vanillafullstrong:       0.00       0.00          0          0          0          0          0          0          0          0
Primal Heuristics  :   ExecTime  SetupTime      Calls      Found       Best
  LP solutions     :       0.00          -          -          0          0
  relax solutions  :       0.00          -          -          0          0
  pseudo solutions :       0.00          -          -          0          0
  strong branching :       0.97          -          -          0          0
  actconsdiving    :       0.00       0.00          0          0          0
  adaptivediving   :       0.89       0.00       2160          0          0
  alns             :      12.66       0.00         14          0          0
  bound            :       0.00       0.00          0          0          0
  clique           :       0.01       0.00          1          0          0
  coefdiving       :       0.00       0.00          0          0          0
  completesol      :       0.00       0.00          0          0          0
  conflictdiving   :       1.78       0.00      17645          0          0
  crossover        :      29.02       0.00          1          0          0
  dins             :       0.00       0.00          0          0          0
  distributiondivin:      11.27       0.00       1673          0          0
  dps              :       0.00       0.00          0          0          0
  dualval          :       0.00       0.00          0          0          0
  farkasdiving     :       0.01       0.00          0          0          0
  feaspump         :       3.26       0.00        836          0          0
  fixandinfer      :       0.00       0.00          0          0          0
  fracdiving       :       1.25       0.00      17710          0          0
  gins             :       0.07       0.00          0          0          0
  guideddiving     :       3.44       0.00      16734          0          0
  indicator        :       0.25       0.00          0          0          0
  indicatordiving  :       0.00       0.00          0          0          0
  intdiving        :       0.00       0.00          0          0          0
  intshifting      :       0.02       0.00         90          0          0
  linesearchdiving :       1.29       0.00      17910          0          0
  localbranching   :       0.00       0.00          0          0          0
  locks            :       0.01       0.00          1          0          0
  lpface           :       0.09       0.00          1          0          0
  mpec             :      17.99       0.00         11          0          0
  multistart       :       0.00       0.00          0          0          0
  mutation         :       0.00       0.00          0          0          0
  nlpdiving        :       0.96       0.00          8          0          0
  objpscostdiving  :       2.57       0.00        834          0          0
  octane           :       0.00       0.00          0          0          0
  ofins            :       0.05       0.00          0          0          0
  oneopt           :       0.12       0.00          3          0          0
  padm             :       0.00       0.00          0          0          0
  proximity        :       0.00       0.00          0          0          0
  pscostdiving     :       3.18       0.00       1674          0          0
  randrounding     :       0.13       0.00       7982          0          0
  rens             :       7.38       0.00          1          0          0
  reoptsols        :       0.00       0.00          0          0          0
  repair           :       0.00       0.00          0          0          0
  rins             :      22.26       0.00         21          0          0
  rootsoldiving    :       2.96       0.00        833          0          0
  rounding         :       0.42       0.00       6145          0          0
  shiftandpropagate:       0.01       0.00          1          0          0
  shifting         :       0.22       0.00       1917          0          0
  simplerounding   :       0.25       0.00          0          0          0
  subnlp           :       7.52       0.00         54          3          3
  trivial          :       0.00       0.00          2          0          0
  trivialnegation  :       0.00       0.00          0          0          0
  trustregion      :       0.00       0.00          0          0          0
  trysol           :       0.13       0.00          0          0          0
  twoopt           :       0.00       0.00          0          0          0
  undercover       :       0.00       0.00          1          0          0
  vbounds          :       0.00       0.00          0          0          0
  veclendiving     :       1.16       0.00      17859          0          0
  zeroobj          :       0.00       0.00          0          0          0
  zirounding       :       0.08       0.00       1000          0          0
  other solutions  :          -          -          -          0          -
Expressions        :   #IntEval  IntEvalTi   #RevProp  RevPropTi    DomReds    Cutoffs  #Estimate  EstimTime  Branching  #Simplify SimplifyTi Simplified
  pow              :     602785       0.31          3       0.00          0          0    6461639       1.29      51416         57       0.00          0
  prod             :    4917209       1.10     994399       0.68        126          0   78254554    2119.05   11864888        276       0.00        109
  sum              :    7900424       2.03    4916872       2.45     237228          0       2014       0.00          0        268       0.00        157
  val              :          0       0.00          0       0.00          0          0          0       0.00          0          0       0.00          0
  var              :    7350944       0.35          0       0.00          0          0          0       0.00          0       1010       0.00         20
  varidx           :          0       0.00          0       0.00          0          0          0       0.00          0          0       0.00          0
Nlhdlrs            :    Detects  DetectAll DetectTime   #IntEval  IntEvalTi   #RevProp  RevPropTi    DomReds    Cutoffs   #Enforce   EnfoTime       Cuts  Branching
  soc              :          0          0       0.00          0       0.00          0       0.00          0          0          0       0.00          0          0
  convex           :          0          0       0.00          0       0.00          0       0.00          0          0          0       0.00          0          0
  concave          :          0          0       0.00          0       0.00          0       0.00          0          0          0       0.00          0          0
  signomial        :         27         27       0.00          0       0.00          0       0.00          0          0   53825211       7.76         33          0
  quotient         :          0          0       0.00          0       0.00          0       0.00          0          0          0       0.00          0          0
  quadratic        :          1          9       0.00     563924      13.90     563919      22.21      15914          0          0       0.00          0          0
  default          :        364       2842       0.00   13421551       4.31    5912023       6.09     237354          0   84718124    2206.31    5961522          0
  bilinear         :         55         55       0.00          0       0.00          0       0.00          0          0   48069448       3.40          0          0
  perspective      :          0          0       0.00          0       0.00          0       0.00          0          0          0       0.00          0          0
LP                 :       Time      Calls Iterations  Iter/call   Iter/sec  Time-0-It Calls-0-It    ItLimit
  primal LP        :     129.17     147524       1136     378.67       8.79     129.11     147521
  dual LP          :     707.20     901032   12596025      14.78   17811.03      24.30      48749
  lex dual LP      :       0.00          0          0       0.00          -
  barrier LP       :       0.00          0          0       0.00          -       0.00          0
  resolve instable :       0.01          2         87      43.50          -
  diving/probing LP:      16.93      12124     115543       9.53    6824.30
  strong branching :      19.75      18887     153580       8.13    7775.66          -          -        290
    (at root node) :          -          0          0       0.00          -
  conflict analysis:       0.00          0          0       0.00          -
NLP relaxation     :
  solve time       :       0.94 (8 calls)
  convexity        :  nonconvex (239 linear rows, 0 convex ineq., 0 nonconvex ineq., 28 nonlinear eq. or two-sided ineq.)
NLP Solvers        :  #Problems  ProblemTi    #Solves  SolveTime      #Iter  Time/Iter      #Okay #TimeLimit #IterLimit #LObjLimit #Interrupt  #NumError #EvalError  #OutOfMem #LicenseEr #OtherTerm   #GlobOpt    #LocOpt  #Feasible #LocInfeas #GlobInfea #Unbounded   #Unknown
  ipopt            :         67       1.54         73      25.68       8097       0.00         57          0         15          0          0          1          0          0          0          0          0          4          0         45          0          0         24
B&B Tree           :
  number of runs   :          1
  nodes            :     212150 (211328 internal, 822 leaves)
  feasible leaves  :          0
  infeas. leaves   :        688
  objective leaves :        133
  nodes (total)    :     212150 (211328 internal, 822 leaves)
  nodes left       :     210434
  max depth        :         73
  max depth (total):         73
  backtracks       :      32910 (15.5%)
  early backtracks :          0 (0.0%)
  nodes exc. ref.  :          0 (0.0%)
  delayed cutoffs  :         55
  repropagations   :       8382 (25588 domain reductions, 0 cutoffs)
  avg switch length:       6.76
  switching time   :     155.74
Root Node          :
  First LP value   : +7.99932000000001e+04
  First LP Iters   :         38 (16637.48 Iter/sec)
  First LP Time    :       0.00
  Final Dual Bound : +2.91557859309705e+04
  Final Root Iters :       1321
  Root LP Estimate : +2.91514056878606e+04
Solution           :
  Solutions found  :          3 (3 improvements)
  First Solution   : +2.16556669597717e+02   (in run 1, after 23400 nodes, 403.52 seconds, depth 26, found by <feaspump>)
  Gap First Sol.   :    6604.01 %
  Gap Last Sol.    :    2589.25 %
  Primal Bound     : +3.99781160439020e+02   (in run 1, after 110480 nodes, 1785.78 seconds, depth 17, found by <guideddiving>)
  Dual Bound       : +9.63378289289054e+03
  Gap              :    2309.76 %
Integrals          :      Total       Avg%
  primal-dual      :  192335.13      53.43
  primal-ref       :          -          - (not evaluated)
  dual-ref         :          -          - (not evaluated)
